NAME 
ROWS
 N  OBJ
 L  R0      
 E  R1      
 E  R2      
 E  R3      
 E  R4      
 E  R5      
 E  R6      
 E  R7      
 E  R8      
 E  R9      
 E  R10     
 E  R11     
 E  R12     
 E  R13     
 E  R14     
 E  R15     
 E  R16     
 E  R17     
 E  R18     
 E  R19     
 E  R20     
 E  R21     
 E  R22     
 E  R23     
 E  R24     
 E  R25     
COLUMNS
    MARKER    'MARKER'                 'INTORG'
    I0(9)     OBJ       -121
    I0(9)     R0        88
    I0(9)     R3        1
    I0(9)     R5        5
    I0(9)     R7        18
    I0(9)     R9        16
    I0(9)     R10       4
    I0(9)     R11       2
    I0(9)     R14       18
    I0(9)     R25       1
    I1(7)     OBJ       68
    I1(7)     R0        -170
    I1(7)     R1        15
    I1(7)     R3        13
    I1(7)     R11       16
    I1(7)     R12       1
    I1(7)     R13       15
    I1(7)     R25       1
    I2(12)    OBJ       -191
    I2(12)    R0        -182
    I2(12)    R3        7
    I2(12)    R5        5
    I2(12)    R6        6
    I2(12)    R8        19
    I2(12)    R9        7
    I2(12)    R10       3
    I2(12)    R11       5
    I2(12)    R13       14
    I2(12)    R14       19
    I2(12)    R15       7
    I2(12)    R25       1
    I3(8)     OBJ       -122
    I3(8)     R0        -28
    I3(8)     R5        7
    I3(8)     R6        10
    I3(8)     R7        12
    I3(8)     R9        -1
    I3(8)     R13       3
    I3(8)     R14       16
    I3(8)     R25       1
    I4(8)     OBJ       57
    I4(8)     R0        -45
    I4(8)     R1        5
    I4(8)     R3        10
    I4(8)     R9        10
    I4(8)     R12       16
    I4(8)     R13       13
    I4(8)     R14       1
    I4(8)     R25       1
    I5(11)    OBJ       -104
    I5(11)    R0        153
    I5(11)    R2        19
    I5(11)    R5        19
    I5(11)    R6        16
    I5(11)    R7        10
    I5(11)    R10       8
    I5(11)    R11       3
    I5(11)    R12       16
    I5(11)    R13       18
    I5(11)    R15       12
    I5(11)    R25       1
    I6(12)    OBJ       113
    I6(12)    R0        198
    I6(12)    R1        13
    I6(12)    R3        18
    I6(12)    R4        8
    I6(12)    R6        11
    I6(12)    R7        7
    I6(12)    R9        10
    I6(12)    R10       14
    I6(12)    R11       19
    I6(12)    R13       12
    I6(12)    R14       14
    I6(12)    R25       1
    I7(9)     OBJ       -105
    I7(9)     R0        149
    I7(9)     R2        -1
    I7(9)     R3        19
    I7(9)     R6        18
    I7(9)     R7        14
    I7(9)     R8        2
    I7(9)     R10       10
    I7(9)     R13       18
    I7(9)     R25       1
    I8(9)     OBJ       112
    I8(9)     R0        60
    I8(9)     R1        18
    I8(9)     R3        3
    I8(9)     R9        8
    I8(9)     R12       10
    I8(9)     R13       14
    I8(9)     R14       14
    I8(9)     R15       12
    I8(9)     R25       1
    I9(8)     OBJ       124
    I9(8)     R0        157
    I9(8)     R1        15
    I9(8)     R2        13
    I9(8)     R3        9
    I9(8)     R6        6
    I9(8)     R13       9
    I9(8)     R15       13
    I9(8)     R25       1
    I10(10)   OBJ       147
    I10(10)   R0        -143
    I10(10)   R1        19
    I10(10)   R2        8
    I10(10)   R6        13
    I10(10)   R7        4
    I10(10)   R8        12
    I10(10)   R11       5
    I10(10)   R13       17
    I10(10)   R14       14
    I10(10)   R25       1
    I11(5)    OBJ       10
    I11(5)    R0        157
    I11(5)    R2        3
    I11(5)    R8        13
    I11(5)    R15       7
    I11(5)    R25       1
    I12(7)    OBJ       152
    I12(7)    R0        75
    I12(7)    R2        17
    I12(7)    R8        3
    I12(7)    R10       9
    I12(7)    R13       7
    I12(7)    R15       1
    I12(7)    R25       1
    I13(11)   OBJ       2
    I13(11)   R0        154
    I13(11)   R2        16
    I13(11)   R3        10
    I13(11)   R4        15
    I13(11)   R5        12
    I13(11)   R6        18
    I13(11)   R7        17
    I13(11)   R8        5
    I13(11)   R12       11
    I13(11)   R15       4
    I13(11)   R25       1
    I14(7)    OBJ       -99
    I14(7)    R0        186
    I14(7)    R1        9
    I14(7)    R7        4
    I14(7)    R10       4
    I14(7)    R11       8
    I14(7)    R12       12
    I14(7)    R25       1
    MARKER    'MARKER'                 'INTEND'
    C15(14)   OBJ       -7
    C15(14)   R0        2
    C15(14)   R1        7
    C15(14)   R2        17
    C15(14)   R5        9
    C15(14)   R7        14
    C15(14)   R8        14
    C15(14)   R10       19
    C15(14)   R15       4
    C15(14)   R16       1
    C15(14)   R18       -1
    C15(14)   R19       16
    C15(14)   R20       14
    C15(14)   R21       18
    C15(14)   R23       18
    C16(19)   OBJ       -7
    C16(19)   R0        -3
    C16(19)   R3        14
    C16(19)   R6        7
    C16(19)   R7        18
    C16(19)   R8        10
    C16(19)   R9        17
    C16(19)   R10       -1
    C16(19)   R11       7
    C16(19)   R13       15
    C16(19)   R14       14
    C16(19)   R15       -1
    C16(19)   R16       4
    C16(19)   R17       19
    C16(19)   R18       3
    C16(19)   R19       13
    C16(19)   R20       -1
    C16(19)   R21       4
    C16(19)   R22       17
    C16(19)   R23       9
    C17(16)   OBJ       9
    C17(16)   R0        -1
    C17(16)   R1        1
    C17(16)   R2        9
    C17(16)   R5        8
    C17(16)   R7        8
    C17(16)   R8        12
    C17(16)   R11       5
    C17(16)   R12       16
    C17(16)   R13       2
    C17(16)   R15       16
    C17(16)   R17       3
    C17(16)   R18       5
    C17(16)   R20       6
    C17(16)   R22       13
    C17(16)   R23       8
    C17(16)   R24       2
    C18(11)   OBJ       6
    C18(11)   R0        -5
    C18(11)   R2        15
    C18(11)   R3        10
    C18(11)   R8        10
    C18(11)   R10       18
    C18(11)   R11       4
    C18(11)   R13       3
    C18(11)   R15       -1
    C18(11)   R21       12
    C18(11)   R22       5
    C18(11)   R23       19
    C19(15)   OBJ       -10
    C19(15)   R0        -2
    C19(15)   R2        15
    C19(15)   R3        6
    C19(15)   R4        6
    C19(15)   R5        1
    C19(15)   R6        5
    C19(15)   R8        5
    C19(15)   R9        19
    C19(15)   R10       7
    C19(15)   R11       6
    C19(15)   R12       5
    C19(15)   R14       1
    C19(15)   R16       16
    C19(15)   R19       15
    C19(15)   R20       15
    C20(15)   OBJ       -1
    C20(15)   R0        1
    C20(15)   R2        10
    C20(15)   R3        19
    C20(15)   R5        11
    C20(15)   R6        3
    C20(15)   R8        7
    C20(15)   R10       5
    C20(15)   R11       9
    C20(15)   R13       16
    C20(15)   R14       18
    C20(15)   R15       10
    C20(15)   R16       17
    C20(15)   R17       5
    C20(15)   R20       14
    C20(15)   R21       1
    C21(12)   OBJ       -1
    C21(12)   R0        -6
    C21(12)   R4        -1
    C21(12)   R5        3
    C21(12)   R6        6
    C21(12)   R7        11
    C21(12)   R9        19
    C21(12)   R10       8
    C21(12)   R13       2
    C21(12)   R15       2
    C21(12)   R16       19
    C21(12)   R18       6
    C21(12)   R23       9
    C22(13)   OBJ       4
    C22(13)   R0        5
    C22(13)   R1        12
    C22(13)   R2        18
    C22(13)   R5        16
    C22(13)   R8        19
    C22(13)   R10       9
    C22(13)   R11       14
    C22(13)   R12       3
    C22(13)   R15       -1
    C22(13)   R16       10
    C22(13)   R17       8
    C22(13)   R21       11
    C22(13)   R24       13
    C23(11)   OBJ       -10
    C23(11)   R0        6
    C23(11)   R1        15
    C23(11)   R3        8
    C23(11)   R7        15
    C23(11)   R13       13
    C23(11)   R15       12
    C23(11)   R18       13
    C23(11)   R20       -1
    C23(11)   R22       5
    C23(11)   R23       11
    C23(11)   R24       8
    C24(16)   OBJ       3
    C24(16)   R0        5
    C24(16)   R1        4
    C24(16)   R2        8
    C24(16)   R3        12
    C24(16)   R5        12
    C24(16)   R7        7
    C24(16)   R8        17
    C24(16)   R9        19
    C24(16)   R10       7
    C24(16)   R12       11
    C24(16)   R13       16
    C24(16)   R14       9
    C24(16)   R16       17
    C24(16)   R18       9
    C24(16)   R19       3
    C24(16)   R22       19
    C25(1)    R1        1
    C26(1)    R2        1
    C27(1)    R3        1
    C28(1)    R4        1
    C29(1)    R5        1
    C30(1)    R6        1
    C31(1)    R7        1
    C32(1)    R8        1
    C33(1)    R9        1
    C34(1)    R10       1
    C35(1)    R11       1
    C36(1)    R12       1
    C37(1)    R13       1
    C38(1)    R14       1
    C39(1)    R15       1
    C40(1)    R16       1
    C41(1)    R17       1
    C42(1)    R18       1
    C43(1)    R19       1
    C44(1)    R20       1
    C45(1)    R21       1
    C46(1)    R22       1
    C47(1)    R23       1
    C48(1)    R24       1
    C49(1)    R25       1
RHS
    RHS1      R0        -1.0868168016194332e+02
    RHS1      R1        66
    RHS1      R2        59
    RHS1      R3        83
    RHS1      R4        86
    RHS1      R5        91
    RHS1      R6        68
    RHS1      R7        78
    RHS1      R8        75
    RHS1      R9        95
    RHS1      R10       90
    RHS1      R11       82
    RHS1      R12       59
    RHS1      R13       66
    RHS1      R14       77
    RHS1      R15       50
    RHS1      R16       92
    RHS1      R17       79
    RHS1      R18       71
    RHS1      R19       53
    RHS1      R20       82
    RHS1      R21       74
    RHS1      R22       64
    RHS1      R23       79
    RHS1      R24       78
    RHS1      R25       5
BOUNDS
 UP BND1      I0(9)     2
 UP BND1      I1(7)     2
 UP BND1      I2(12)    2
 UP BND1      I3(8)     2
 UP BND1      I4(8)     2
 UP BND1      I5(11)    2
 UP BND1      I6(12)    2
 UP BND1      I7(9)     2
 UP BND1      I8(9)     2
 UP BND1      I9(8)     2
 UP BND1      I10(10)   2
 UP BND1      I11(5)    2
 UP BND1      I12(7)    2
 UP BND1      I13(11)   2
 UP BND1      I14(7)    2
ENDATA
